p edge 47 161
e 1 4
e 1 6
e 1 11
e 1 12
e 1 13
e 1 15
e 1 21
e 1 22
e 1 27
e 1 30
e 1 31
e 1 33
e 1 36
e 2 3
e 2 4
e 2 6
e 2 11
e 2 15
e 2 18
e 2 22
e 2 25
e 2 29
e 2 33
e 2 39
e 2 42
e 2 43
e 2 44
e 3 8
e 3 10
e 3 16
e 3 17
e 3 18
e 3 19
e 3 20
e 3 23
e 3 24
e 3 25
e 4 11
e 4 15
e 4 18
e 4 20
e 4 23
e 4 30
e 4 31
e 4 33
e 4 39
e 5 7
e 5 10
e 5 13
e 5 14
e 5 16
e 5 17
e 5 22
e 5 23
e 5 32
e 5 41
e 6 7
e 6 11
e 6 12
e 6 13
e 6 15
e 6 17
e 6 18
e 6 22
e 6 25
e 6 29
e 6 30
e 6 36
e 6 39
e 6 42
e 6 43
e 7 10
e 7 14
e 7 16
e 7 17
e 7 19
e 7 20
e 7 23
e 8 9
e 8 10
e 8 17
e 8 19
e 8 24
e 9 26
e 9 28
e 9 35
e 9 38
e 10 14
e 10 17
e 10 19
e 10 21
e 10 24
e 11 12
e 11 15
e 11 30
e 11 31
e 11 36
e 12 15
e 12 30
e 12 31
e 12 34
e 12 36
e 13 14
e 13 16
e 13 21
e 13 22
e 13 27
e 13 33
e 14 17
e 14 22
e 14 32
e 15 30
e 15 31
e 15 36
e 16 20
e 16 21
e 16 23
e 16 32
e 16 41
e 17 19
e 17 32
e 18 25
e 18 28
e 18 29
e 18 33
e 18 37
e 18 39
e 18 40
e 18 42
e 18 43
e 18 44
e 19 21
e 19 24
e 20 23
e 21 22
e 21 24
e 23 32
e 23 41
e 25 29
e 25 42
e 25 43
e 26 28
e 26 35
e 26 38
e 27 33
e 27 40
e 27 46
e 28 35
e 28 37
e 29 39
e 29 42
e 29 43
e 30 36
e 32 41
e 33 39
e 33 40
e 35 37
e 37 44
e 40 46
e 42 43
e 45 47
